(set-logic HORN)
(set-info :source |
    Benchmark: C_VC
    Output by Princess (http://www.philipp.ruemmer.org/princess.shtml)
|)
(set-info :status sat)
(declare-fun inv_main6 (Int Int Int Int) Bool)
(declare-fun inv_main807 (Int Int Int Int Int Int Int Int Int Int Int Int Int Int Int Int Int Int Int Int Int Int Int Int Int Int Int Int Int Int Int Int Int Int Int Int Int Int Int Int Int Int Int Int Int Int Int Int Int Int Int Int Int Int Int Int Int Int Int Int Int Int Int Int Int Int Int Int Int Int Int Int Int Int Int Int Int Int Int Int Int Int Int Int Int) Bool)
(assert (forall ((var0 Int) (var1 Int) (var2 Int)) (inv_main6 var2 0 var1 var0)))
(assert (forall ((var0 Int) (var1 Int) (var2 Int) (var3 Int) (var4 Int) (var5 Int) (var6 Int) (var7 Int) (var8 Int) (var9 Int) (var10 Int) (var11 Int) (var12 Int) (var13 Int) (var14 Int) (var15 Int) (var16 Int) (var17 Int) (var18 Int) (var19 Int) (var20 Int) (var21 Int) (var22 Int) (var23 Int) (var24 Int) (var25 Int) (var26 Int) (var27 Int) (var28 Int) (var29 Int) (var30 Int) (var31 Int) (var32 Int) (var33 Int) (var34 Int) (var35 Int) (var36 Int) (var37 Int) (var38 Int) (var39 Int) (var40 Int) (var41 Int) (var42 Int) (var43 Int) (var44 Int) (var45 Int) (var46 Int) (var47 Int) (var48 Int) (var49 Int) (var50 Int) (var51 Int) (var52 Int) (var53 Int) (var54 Int) (var55 Int) (var56 Int) (var57 Int) (var58 Int) (var59 Int) (var60 Int) (var61 Int) (var62 Int) (var63 Int) (var64 Int) (var65 Int) (var66 Int) (var67 Int) (var68 Int) (var69 Int) (var70 Int) (var71 Int) (var72 Int) (var73 Int) (var74 Int) (var75 Int) (var76 Int) (var77 Int) (var78 Int) (var79 Int) (var80 Int) (var81 Int) (var82 Int) (var83 Int) (var84 Int)) (or (not (and (inv_main6 var84 var83 var82 var81) (and (and (and (and (and (and (and (and (and (and (and (and (and (and (and (and (and (and (and (and (and (and (and (and (and (and (and (and (and (and (and (and (and (and (and (and (and (and (and (and (and (and (and (and (and (and (and (and (and (and (and (and (and (and (and (and (and (and (and (and (and (and (and (and (and (and (and (and (and (and (and (and (and (and (and (and (and (and (and (and (and (and (= var80 var79) (and (= var78 var77) (and (= var76 var75) (and (= var74 var73) (and (= var72 var71) (and (= var70 var69) (and (= var68 var67) (and (= var66 var65) (and (<= 0 (+ (+ var69 var64) (- 2))) (and (not (= var69 var64)) (and (<= 0 (+ (+ var69 var63) (- 2))) (and (not (= var69 var63)) (and (<= 0 (+ (+ var69 var62) (- 2))) (and (not (= var69 var62)) (and (<= 0 (+ (+ var69 var61) (- 2))) (and (not (= var69 var61)) (and (<= 0 (+ (+ var69 var60) (- 2))) (and (not (= var69 var60)) (and (<= 0 (+ (+ var69 var59) (- 2))) (and (not (= var69 var59)) (and (<= 0 (+ (+ var69 var58) (- 2))) (and (not (= var69 var58)) (and (<= 0 (+ (+ var69 var57) (- 2))) (and (not (= var69 var57)) (and (<= 0 (+ (+ var75 var56) (- 2))) (and (not (= var75 var56)) (and (<= 0 (+ (+ var75 var55) (- 2))) (and (not (= var75 var55)) (and (<= 0 (+ (+ var75 var54) (- 2))) (and (not (= var75 var54)) (and (<= 0 (+ (+ var75 var53) (- 2))) (and (not (= var75 var53)) (and (<= 0 (+ (+ var75 var52) (- 2))) (and (not (= var75 var52)) (and (<= 0 (+ (+ var75 var51) (- 2))) (and (not (= var75 var51)) (and (<= 0 (+ (+ var75 var50) (- 2))) (and (not (= var75 var50)) (and (<= 0 (+ (+ var75 var49) (- 2))) (and (not (= var75 var49)) (and (<= 0 (+ (+ var79 var48) (- 2))) (and (not (= var79 var48)) (and (<= 0 (+ (+ var79 var47) (- 2))) (and (not (= var79 var47)) (and (<= 0 (+ (+ var79 var46) (- 2))) (and (not (= var79 var46)) (and (<= 0 (+ (+ var79 var45) (- 2))) (and (not (= var79 var45)) (and (<= 0 (+ (+ var79 var44) (- 2))) (and (not (= var79 var44)) (and (<= 0 (+ (+ var79 var43) (- 2))) (and (not (= var79 var43)) (and (<= 0 (+ (+ var79 var42) (- 2))) (and (not (= var79 var42)) (and (<= 0 (+ (+ var79 var41) (- 2))) (and (not (= var79 var41)) (and (<= 0 (+ (+ var67 var40) (- 2))) (and (not (= var67 var40)) (and (<= 0 (+ (+ var67 var39) (- 2))) (and (not (= var67 var39)) (and (<= 0 (+ (+ var67 var38) (- 2))) (and (not (= var67 var38)) (and (<= 0 (+ (+ var67 var37) (- 2))) (and (not (= var67 var37)) (and (<= 0 (+ (+ var67 var36) (- 2))) (and (not (= var67 var36)) (and (<= 0 (+ (+ var67 var35) (- 2))) (and (not (= var67 var35)) (and (<= 0 (+ (+ var67 var34) (- 2))) (and (not (= var67 var34)) (and (<= 0 (+ (+ var67 var33) (- 2))) (and (not (= var67 var33)) (and (<= 0 (+ (+ var73 var32) (- 2))) (and (not (= var73 var32)) (and (<= 0 (+ (+ var73 var31) (- 2))) (and (not (= var73 var31)) (and (<= 0 (+ (+ var73 var30) (- 2))) (and (not (= var73 var30)) (and (<= 0 (+ (+ var73 var29) (- 2))) (and (not (= var73 var29)) (and (<= 0 (+ (+ var73 var28) (- 2))) (and (not (= var73 var28)) (and (<= 0 (+ (+ var73 var27) (- 2))) (and (not (= var73 var27)) (and (<= 0 (+ (+ var73 var26) (- 2))) (and (not (= var73 var26)) (and (<= 0 (+ (+ var73 var25) (- 2))) (and (not (= var73 var25)) (and (<= 0 (+ (+ var77 var24) (- 2))) (and (not (= var77 var24)) (and (<= 0 (+ (+ var77 var23) (- 2))) (and (not (= var77 var23)) (and (<= 0 (+ (+ var77 var22) (- 2))) (and (not (= var77 var22)) (and (<= 0 (+ (+ var77 var21) (- 2))) (and (not (= var77 var21)) (and (<= 0 (+ (+ var77 var20) (- 2))) (and (not (= var77 var20)) (and (<= 0 (+ (+ var77 var19) (- 2))) (and (not (= var77 var19)) (and (<= 0 (+ (+ var77 var18) (- 2))) (and (not (= var77 var18)) (and (<= 0 (+ (+ var77 var17) (- 2))) (and (not (= var77 var17)) (and (<= 0 (+ (+ var65 var16) (- 2))) (and (not (= var65 var16)) (and (<= 0 (+ (+ var65 var15) (- 2))) (and (not (= var65 var15)) (and (<= 0 (+ (+ var65 var14) (- 2))) (and (not (= var65 var14)) (and (<= 0 (+ (+ var65 var13) (- 2))) (and (not (= var65 var13)) (and (<= 0 (+ (+ var65 var12) (- 2))) (and (not (= var65 var12)) (and (<= 0 (+ (+ var65 var11) (- 2))) (and (not (= var65 var11)) (and (<= 0 (+ (+ var65 var10) (- 2))) (and (not (= var65 var10)) (and (<= 0 (+ (+ var65 var9) (- 2))) (and (not (= var65 var9)) (and (<= 0 (+ (+ var71 var8) (- 2))) (and (not (= var71 var8)) (and (<= 0 (+ (+ var71 var7) (- 2))) (and (not (= var71 var7)) (and (<= 0 (+ (+ var71 var6) (- 2))) (and (not (= var71 var6)) (and (<= 0 (+ (+ var71 var5) (- 2))) (and (not (= var71 var5)) (and (<= 0 (+ (+ var71 var4) (- 2))) (and (not (= var71 var4)) (and (<= 0 (+ (+ var71 var3) (- 2))) (and (not (= var71 var3)) (and (<= 0 (+ (+ var71 var2) (- 2))) (and (not (= var71 var2)) (and (<= 0 (+ (+ var71 var1) (- 2))) (and (not (= var71 var1)) (and (<= 0 (+ (* (- 1) (* (+ var64 (* (- 1) var59)) (+ var59 (* (- 1) var64)))) (- 1))) (and (<= 0 (+ (* (- 1) (* (+ var64 (* (- 1) var58)) (+ var58 (* (- 1) var64)))) (- 1))) (and (<= 0 (+ (* (- 1) (* (+ var8 (* (- 1) var1)) (+ var1 (* (- 1) var8)))) (- 1))) (and (<= 0 (+ (* (- 1) (* (+ var80 (* (- 1) var70)) (+ var70 (* (- 1) var80)))) (- 1))) (and (<= 0 (+ (* (- 1) (* (+ var80 (* (- 1) var0)) (+ var0 (* (- 1) var80)))) (- 1))) (and (<= 0 (+ (* (- 1) (* (+ var78 (* (- 1) var80)) (+ var80 (* (- 1) var78)))) (- 1))) (and (<= 0 (+ (* (- 1) (* (+ var78 (* (- 1) var68)) (+ var68 (* (- 1) var78)))) (- 1))) (and (<= 0 (+ (* (- 1) (* (+ var78 (* (- 1) var66)) (+ var66 (* (- 1) var78)))) (- 1))) (and (<= 0 (+ (* (- 1) (* (+ var32 (* (- 1) var25)) (+ var25 (* (- 1) var32)))) (- 1))) (and (<= 0 (+ (* (- 1) (* (+ var16 (* (- 1) var15)) (+ var15 (* (- 1) var16)))) (- 1))) (and (<= 0 (+ (* (- 1) (* (+ var16 (* (- 1) var11)) (+ var11 (* (- 1) var16)))) (- 1))) (and (<= 0 (+ (* (- 1) (* (+ var16 (* (- 1) var10)) (+ var10 (* (- 1) var16)))) (- 1))) (and (<= 0 (+ (* (- 1) (* (+ var16 (* (- 1) var9)) (+ var9 (* (- 1) var16)))) (- 1))) (and (<= 0 (+ (* (- 1) (* (+ var40 (* (- 1) var38)) (+ var38 (* (- 1) var40)))) (- 1))) (and (<= 0 (+ (* (- 1) (* (+ var40 (* (- 1) var36)) (+ var36 (* (- 1) var40)))) (- 1))) (and (<= 0 (+ (* (- 1) (* (+ var40 (* (- 1) var33)) (+ var33 (* (- 1) var40)))) (- 1))) (and (<= 0 (+ (* (- 1) (* (+ var39 (* (- 1) var40)) (+ var40 (* (- 1) var39)))) (- 1))) (and (<= 0 (+ (* (- 1) (* (+ var39 (* (- 1) var36)) (+ var36 (* (- 1) var39)))) (- 1))) (and (<= 0 (+ (* (- 1) (* (+ var39 (* (- 1) var34)) (+ var34 (* (- 1) var39)))) (- 1))) (and (<= 0 (+ (* (- 1) (* (+ var7 (* (- 1) var5)) (+ var5 (* (- 1) var7)))) (- 1))) (and (<= 0 (+ (* (- 1) (* (+ var7 (* (- 1) var4)) (+ var4 (* (- 1) var7)))) (- 1))) (and (<= 0 (+ (* (- 1) (* (+ var7 (* (- 1) var1)) (+ var1 (* (- 1) var7)))) (- 1))) (and (<= 0 (+ (* (- 1) (* (+ var38 (* (- 1) var36)) (+ var36 (* (- 1) var38)))) (- 1))) (and (<= 0 (+ (* (- 1) (* (+ var38 (* (- 1) var34)) (+ var34 (* (- 1) var38)))) (- 1))) (and (<= 0 (+ (* (- 1) (* (+ var31 (* (- 1) var30)) (+ var30 (* (- 1) var31)))) (- 1))) (and (<= 0 (+ (* (- 1) (* (+ var31 (* (- 1) var29)) (+ var29 (* (- 1) var31)))) (- 1))) (and (<= 0 (+ (* (- 1) (* (+ var31 (* (- 1) var26)) (+ var26 (* (- 1) var31)))) (- 1))) (and (<= 0 (+ (* (- 1) (* (+ var24 (* (- 1) var23)) (+ var23 (* (- 1) var24)))) (- 1))) (and (<= 0 (+ (* (- 1) (* (+ var24 (* (- 1) var22)) (+ var22 (* (- 1) var24)))) (- 1))) (and (<= 0 (+ (* (- 1) (* (+ var24 (* (- 1) var21)) (+ var21 (* (- 1) var24)))) (- 1))) (and (<= 0 (+ (* (- 1) (* (+ var24 (* (- 1) var19)) (+ var19 (* (- 1) var24)))) (- 1))) (and (<= 0 (+ (* (- 1) (* (+ var24 (* (- 1) var18)) (+ var18 (* (- 1) var24)))) (- 1))) (and (<= 0 (+ (* (- 1) (* (+ var48 (* (- 1) var47)) (+ var47 (* (- 1) var48)))) (- 1))) (and (<= 0 (+ (* (- 1) (* (+ var48 (* (- 1) var46)) (+ var46 (* (- 1) var48)))) (- 1))) (and (<= 0 (+ (* (- 1) (* (+ var48 (* (- 1) var44)) (+ var44 (* (- 1) var48)))) (- 1))) (and (<= 0 (+ (* (- 1) (* (+ var48 (* (- 1) var42)) (+ var42 (* (- 1) var48)))) (- 1))) (and (<= 0 (+ (* (- 1) (* (+ var48 (* (- 1) var41)) (+ var41 (* (- 1) var48)))) (- 1))) (and (<= 0 (+ (* (- 1) (* (+ var13 (* (- 1) var16)) (+ var16 (* (- 1) var13)))) (- 1))) (and (<= 0 (+ (* (- 1) (* (+ var13 (* (- 1) var15)) (+ var15 (* (- 1) var13)))) (- 1))) (and (<= 0 (+ (* (- 1) (* (+ var13 (* (- 1) var14)) (+ var14 (* (- 1) var13)))) (- 1))) (and (<= 0 (+ (* (- 1) (* (+ var13 (* (- 1) var10)) (+ var10 (* (- 1) var13)))) (- 1))) (and (<= 0 (+ (* (- 1) (* (+ var13 (* (- 1) var9)) (+ var9 (* (- 1) var13)))) (- 1))) (and (<= 0 (+ (* (- 1) (* (+ var23 (* (- 1) var18)) (+ var18 (* (- 1) var23)))) (- 1))) (and (<= 0 (+ (* (- 1) (* (+ var12 (* (- 1) var16)) (+ var16 (* (- 1) var12)))) (- 1))) (and (<= 0 (+ (* (- 1) (* (+ var12 (* (- 1) var15)) (+ var15 (* (- 1) var12)))) (- 1))) (and (<= 0 (+ (* (- 1) (* (+ var12 (* (- 1) var14)) (+ var14 (* (- 1) var12)))) (- 1))) (and (<= 0 (+ (* (- 1) (* (+ var12 (* (- 1) var13)) (+ var13 (* (- 1) var12)))) (- 1))) (and (<= 0 (+ (* (- 1) (* (+ var12 (* (- 1) var10)) (+ var10 (* (- 1) var12)))) (- 1))) (and (<= 0 (+ (* (- 1) (* (+ var12 (* (- 1) var9)) (+ var9 (* (- 1) var12)))) (- 1))) (and (<= 0 (+ (* (- 1) (* (+ var55 (* (- 1) var56)) (+ var56 (* (- 1) var55)))) (- 1))) (and (<= 0 (+ (* (- 1) (* (+ var55 (* (- 1) var54)) (+ var54 (* (- 1) var55)))) (- 1))) (and (<= 0 (+ (* (- 1) (* (+ var22 (* (- 1) var23)) (+ var23 (* (- 1) var22)))) (- 1))) (and (<= 0 (+ (* (- 1) (* (+ var22 (* (- 1) var18)) (+ var18 (* (- 1) var22)))) (- 1))) (and (<= 0 (+ (* (- 1) (* (+ var76 (* (- 1) var80)) (+ var80 (* (- 1) var76)))) (- 1))) (and (<= 0 (+ (* (- 1) (* (+ var76 (* (- 1) var78)) (+ var78 (* (- 1) var76)))) (- 1))) (and (<= 0 (+ (* (- 1) (* (+ var76 (* (- 1) var74)) (+ var74 (* (- 1) var76)))) (- 1))) (and (<= 0 (+ (* (- 1) (* (+ var76 (* (- 1) var68)) (+ var68 (* (- 1) var76)))) (- 1))) (and (<= 0 (+ (* (- 1) (* (+ var76 (* (- 1) var66)) (+ var66 (* (- 1) var76)))) (- 1))) (and (<= 0 (+ (* (- 1) (* (+ var37 (* (- 1) var38)) (+ var38 (* (- 1) var37)))) (- 1))) (and (<= 0 (+ (* (- 1) (* (+ var37 (* (- 1) var36)) (+ var36 (* (- 1) var37)))) (- 1))) (and (<= 0 (+ (* (- 1) (* (+ var37 (* (- 1) var33)) (+ var33 (* (- 1) var37)))) (- 1))) (and (<= 0 (+ (* (- 1) (* (+ var47 (* (- 1) var44)) (+ var44 (* (- 1) var47)))) (- 1))) (and (<= 0 (+ (* (- 1) (* (+ var63 (* (- 1) var59)) (+ var59 (* (- 1) var63)))) (- 1))) (and (<= 0 (+ (* (- 1) (* (+ var6 (* (- 1) var3)) (+ var3 (* (- 1) var6)))) (- 1))) (and (<= 0 (+ (* (- 1) (* (+ var6 (* (- 1) var1)) (+ var1 (* (- 1) var6)))) (- 1))) (and (<= 0 (+ (* (- 1) (* (+ var11 (* (- 1) var14)) (+ var14 (* (- 1) var11)))) (- 1))) (and (<= 0 (+ (* (- 1) (* (+ var54 (* (- 1) var56)) (+ var56 (* (- 1) var54)))) (- 1))) (and (<= 0 (+ (* (- 1) (* (+ var54 (* (- 1) var50)) (+ var50 (* (- 1) var54)))) (- 1))) (and (<= 0 (+ (* (- 1) (* (+ var53 (* (- 1) var55)) (+ var55 (* (- 1) var53)))) (- 1))) (and (<= 0 (+ (* (- 1) (* (+ var53 (* (- 1) var49)) (+ var49 (* (- 1) var53)))) (- 1))) (and (<= 0 (+ (* (- 1) (* (+ var21 (* (- 1) var19)) (+ var19 (* (- 1) var21)))) (- 1))) (and (<= 0 (+ (* (- 1) (* (+ var21 (* (- 1) var18)) (+ var18 (* (- 1) var21)))) (- 1))) (and (<= 0 (+ (* (- 1) (* (+ var35 (* (- 1) var39)) (+ var39 (* (- 1) var35)))) (- 1))) (and (<= 0 (+ (* (- 1) (* (+ var35 (* (- 1) var38)) (+ var38 (* (- 1) var35)))) (- 1))) (and (<= 0 (+ (* (- 1) (* (+ var35 (* (- 1) var37)) (+ var37 (* (- 1) var35)))) (- 1))) (and (<= 0 (+ (* (- 1) (* (+ var35 (* (- 1) var34)) (+ var34 (* (- 1) var35)))) (- 1))) (and (<= 0 (+ (* (- 1) (* (+ var35 (* (- 1) var33)) (+ var33 (* (- 1) var35)))) (- 1))) (and (<= 0 (+ (* (- 1) (* (+ var74 (* (- 1) var80)) (+ var80 (* (- 1) var74)))) (- 1))) (and (<= 0 (+ (* (- 1) (* (+ var74 (* (- 1) var78)) (+ var78 (* (- 1) var74)))) (- 1))) (and (<= 0 (+ (* (- 1) (* (+ var74 (* (- 1) var68)) (+ var68 (* (- 1) var74)))) (- 1))) (and (<= 0 (+ (* (- 1) (* (+ var74 (* (- 1) var66)) (+ var66 (* (- 1) var74)))) (- 1))) (and (<= 0 (+ (* (- 1) (* (+ var62 (* (- 1) var64)) (+ var64 (* (- 1) var62)))) (- 1))) (and (<= 0 (+ (* (- 1) (* (+ var62 (* (- 1) var60)) (+ var60 (* (- 1) var62)))) (- 1))) (and (<= 0 (+ (* (- 1) (* (+ var62 (* (- 1) var59)) (+ var59 (* (- 1) var62)))) (- 1))) (and (<= 0 (+ (* (- 1) (* (+ var62 (* (- 1) var58)) (+ var58 (* (- 1) var62)))) (- 1))) (and (<= 0 (+ (* (- 1) (* (+ var62 (* (- 1) var57)) (+ var57 (* (- 1) var62)))) (- 1))) (and (<= 0 (+ (* (- 1) (* (+ var5 (* (- 1) var3)) (+ var3 (* (- 1) var5)))) (- 1))) (and (<= 0 (+ (* (- 1) (* (+ var5 (* (- 1) var1)) (+ var1 (* (- 1) var5)))) (- 1))) (and (<= 0 (+ (* (- 1) (* (+ var61 (* (- 1) var59)) (+ var59 (* (- 1) var61)))) (- 1))) (and (<= 0 (+ (* (- 1) (* (+ var10 (* (- 1) var11)) (+ var11 (* (- 1) var10)))) (- 1))) (and (<= 0 (+ (* (- 1) (* (+ var72 (* (- 1) var80)) (+ var80 (* (- 1) var72)))) (- 1))) (and (<= 0 (+ (* (- 1) (* (+ var72 (* (- 1) var74)) (+ var74 (* (- 1) var72)))) (- 1))) (and (<= 0 (+ (* (- 1) (* (+ var72 (* (- 1) var70)) (+ var70 (* (- 1) var72)))) (- 1))) (and (<= 0 (+ (* (- 1) (* (+ var72 (* (- 1) var68)) (+ var68 (* (- 1) var72)))) (- 1))) (and (<= 0 (+ (* (- 1) (* (+ var72 (* (- 1) var66)) (+ var66 (* (- 1) var72)))) (- 1))) (and (<= 0 (+ (* (- 1) (* (+ var4 (* (- 1) var6)) (+ var6 (* (- 1) var4)))) (- 1))) (and (<= 0 (+ (* (- 1) (* (+ var4 (* (- 1) var5)) (+ var5 (* (- 1) var4)))) (- 1))) (and (<= 0 (+ (* (- 1) (* (+ var4 (* (- 1) var1)) (+ var1 (* (- 1) var4)))) (- 1))) (and (<= 0 (+ (* (- 1) (* (+ var68 (* (- 1) var80)) (+ var80 (* (- 1) var68)))) (- 1))) (and (<= 0 (+ (* (- 1) (* (+ var68 (* (- 1) var0)) (+ var0 (* (- 1) var68)))) (- 1))) (and (<= 0 (+ (* (- 1) (* (+ var28 (* (- 1) var26)) (+ var26 (* (- 1) var28)))) (- 1))) (and (<= 0 (+ (* (- 1) (* (+ var20 (* (- 1) var24)) (+ var24 (* (- 1) var20)))) (- 1))) (and (<= 0 (+ (* (- 1) (* (+ var20 (* (- 1) var22)) (+ var22 (* (- 1) var20)))) (- 1))) (and (<= 0 (+ (* (- 1) (* (+ var20 (* (- 1) var18)) (+ var18 (* (- 1) var20)))) (- 1))) (and (<= 0 (+ (* (- 1) (* (+ var20 (* (- 1) var17)) (+ var17 (* (- 1) var20)))) (- 1))) (and (<= 0 (+ (* (- 1) (* (+ var27 (* (- 1) var32)) (+ var32 (* (- 1) var27)))) (- 1))) (and (<= 0 (+ (* (- 1) (* (+ var27 (* (- 1) var30)) (+ var30 (* (- 1) var27)))) (- 1))) (and (<= 0 (+ (* (- 1) (* (+ var3 (* (- 1) var1)) (+ var1 (* (- 1) var3)))) (- 1))) (and (<= 0 (+ (* (- 1) (* (+ var51 (* (- 1) var49)) (+ var49 (* (- 1) var51)))) (- 1))) (and (<= 0 (+ (* (- 1) (* (+ var60 (* (- 1) var61)) (+ var61 (* (- 1) var60)))) (- 1))) (and (<= 0 (+ (* (- 1) (* (+ var60 (* (- 1) var59)) (+ var59 (* (- 1) var60)))) (- 1))) (and (<= 0 (+ (* (- 1) (* (+ var59 (* (- 1) var58)) (+ var58 (* (- 1) var59)))) (- 1))) (and (<= 0 (+ (* (- 1) (* (+ var19 (* (- 1) var23)) (+ var23 (* (- 1) var19)))) (- 1))) (and (<= 0 (+ (* (- 1) (* (+ var19 (* (- 1) var17)) (+ var17 (* (- 1) var19)))) (- 1))) (and (<= 0 (+ (* (- 1) (* (+ var46 (* (- 1) var47)) (+ var47 (* (- 1) var46)))) (- 1))) (and (<= 0 (+ (* (- 1) (* (+ var46 (* (- 1) var44)) (+ var44 (* (- 1) var46)))) (- 1))) (and (<= 0 (+ (* (- 1) (* (+ var46 (* (- 1) var41)) (+ var41 (* (- 1) var46)))) (- 1))) (and (<= 0 (+ (* (- 1) (* (+ var66 (* (- 1) var80)) (+ var80 (* (- 1) var66)))) (- 1))) (and (<= 0 (+ (* (- 1) (* (+ var66 (* (- 1) var70)) (+ var70 (* (- 1) var66)))) (- 1))) (and (<= 0 (+ (* (- 1) (* (+ var9 (* (- 1) var11)) (+ var11 (* (- 1) var9)))) (- 1))) (and (<= 0 (+ (* (- 1) (* (+ var9 (* (- 1) var10)) (+ var10 (* (- 1) var9)))) (- 1))) (and (<= 0 (+ (* (- 1) (* (+ var2 (* (- 1) var6)) (+ var6 (* (- 1) var2)))) (- 1))) (and (<= 0 (+ (* (- 1) (* (+ var2 (* (- 1) var5)) (+ var5 (* (- 1) var2)))) (- 1))) (and (<= 0 (+ (* (- 1) (* (+ var2 (* (- 1) var4)) (+ var4 (* (- 1) var2)))) (- 1))) (and (<= 0 (+ (* (- 1) (* (+ var2 (* (- 1) var1)) (+ var1 (* (- 1) var2)))) (- 1))) (and (<= 0 (+ (* (- 1) (* (+ var45 (* (- 1) var44)) (+ var44 (* (- 1) var45)))) (- 1))) (and (<= 0 (+ (* (- 1) (* (+ var45 (* (- 1) var43)) (+ var43 (* (- 1) var45)))) (- 1))) (and (<= 0 (+ (* (- 1) (* (+ var26 (* (- 1) var30)) (+ var30 (* (- 1) var26)))) (- 1))) (and (<= 0 (+ (* (- 1) (* (+ var26 (* (- 1) var27)) (+ var27 (* (- 1) var26)))) (- 1))) (and (<= 0 (+ (* (- 1) (* (+ var49 (* (- 1) var50)) (+ var50 (* (- 1) var49)))) (- 1))) (and (<= 0 (+ (* (- 1) (* (+ var44 (* (- 1) var42)) (+ var42 (* (- 1) var44)))) (- 1))) (and (<= 0 (+ (* (- 1) (* (+ var43 (* (- 1) var47)) (+ var47 (* (- 1) var43)))) (- 1))) (and (<= 0 (+ (* (- 1) (* (+ var43 (* (- 1) var42)) (+ var42 (* (- 1) var43)))) (- 1))) (and (<= 0 (+ (* (- 1) (* (+ var43 (* (- 1) var41)) (+ var41 (* (- 1) var43)))) (- 1))) (and (<= 0 (+ (* (- 1) (* (+ var57 (* (- 1) var58)) (+ var58 (* (- 1) var57)))) (- 1))) (and (<= 0 (+ (* (- 1) (* (+ var41 (* (- 1) var44)) (+ var44 (* (- 1) var41)))) (- 1))) (and (not (= var8 var6)) (and (not (= var8 var5)) (and (not (= var8 var4)) (and (not (= var8 var3)) (and (not (= var78 var70)) (and (not (= var78 var0)) (and (not (= var32 var30)) (and (not (= var16 var14)) (and (not (= var15 var14)) (and (not (= var15 var11)) (and (not (= var15 var10)) (and (not (= var40 var34)) (and (not (= var39 var38)) (and (not (= var39 var33)) (and (not (= var7 var8)) (and (not (= var7 var6)) (and (not (= var7 var3)) (and (not (= var56 var50)) (and (not (= var31 var32)) (and (not (= var31 var27)) (and (not (= var31 var25)) (and (not (= var24 var17)) (and (not (= var13 var11)) (and (not (= var23 var17)) (and (not (= var12 var11)) (and (not (= var55 var50)) (and (not (= var55 var49)) (and (not (= var22 var21)) (and (not (= var22 var19)) (and (not (= var22 var17)) (and (not (= var76 var72)) (and (not (= var76 var70)) (and (not (= var76 var0)) (and (not (= var37 var40)) (and (not (= var37 var39)) (and (not (= var37 var34)) (and (not (= var47 var42)) (and (not (= var47 var41)) (and (not (= var63 var64)) (and (not (= var63 var58)) (and (not (= var6 var5)) (and (not (= var54 var49)) (and (not (= var53 var56)) (and (not (= var53 var54)) (and (not (= var53 var52)) (and (not (= var53 var51)) (and (not (= var53 var50)) (and (not (= var21 var23)) (and (not (= var21 var17)) (and (not (= var35 var40)) (and (not (= var35 var36)) (and (not (= var30 var25)) (and (not (= var52 var56)) (and (not (= var52 var55)) (and (not (= var52 var54)) (and (not (= var52 var51)) (and (not (= var52 var50)) (and (not (= var52 var49)) (and (not (= var74 var70)) (and (not (= var74 var0)) (and (not (= var62 var63)) (and (not (= var62 var61)) (and (not (= var29 var32)) (and (not (= var29 var30)) (and (not (= var29 var27)) (and (not (= var29 var25)) (and (not (= var61 var64)) (and (not (= var61 var63)) (and (not (= var61 var58)) (and (not (= var10 var14)) (and (not (= var72 var78)) (and (not (= var72 var0)) (and (not (= var4 var3)) (and (not (= var70 var0)) (and (not (= var68 var70)) (and (not (= var68 var66)) (and (not (= var28 var32)) (and (not (= var28 var31)) (and (not (= var28 var30)) (and (not (= var28 var29)) (and (not (= var28 var27)) (and (not (= var28 var25)) (and (not (= var34 var36)) (and (not (= var20 var23)) (and (not (= var20 var21)) (and (not (= var20 var19)) (and (not (= var27 var25)) (and (not (= var51 var56)) (and (not (= var51 var55)) (and (not (= var51 var54)) (and (not (= var51 var50)) (and (not (= var60 var64)) (and (not (= var60 var63)) (and (not (= var60 var58)) (and (not (= var60 var57)) (and (not (= var19 var18)) (and (not (= var46 var42)) (and (not (= var33 var38)) (and (not (= var33 var36)) (and (not (= var33 var34)) (and (not (= var66 var0)) (and (not (= var9 var15)) (and (not (= var9 var14)) (and (not (= var2 var8)) (and (not (= var2 var7)) (and (not (= var2 var3)) (and (not (= var45 var48)) (and (not (= var45 var47)) (and (not (= var45 var46)) (and (not (= var45 var42)) (and (not (= var45 var41)) (and (not (= var26 var32)) (and (not (= var26 var29)) (and (not (= var26 var25)) (and (not (= var18 var17)) (and (not (= var49 var56)) (and (not (= var43 var48)) (and (not (= var43 var46)) (and (not (= var43 var44)) (and (not (= var57 var64)) (and (not (= var57 var63)) (and (not (= var57 var61)) (and (not (= var57 var59)) (not (= var41 var42))))))))))))))))))))))))))))))))))))))))))))))))))))))))))))))))))))))))))))))))))))))))))))))))))))))))))))))))))))))))))))))))))))))))))))))))))))))))))))))))))))))))))))))))))))))))))))))))))))))))))))))))))))))))))))))))))))))))))))))))))))))))))))))))))))))))))))))))))))))))))))))))))))))))))))))))))))))))))))))))))))))))))))))))))))))))))))))))))))))))))))))))))))))))))))))))))))))))))))) (and (<= 0 (+ 8 (* (- 1) var8))) (<= 0 var8))) (and (<= 0 (+ 8 (* (- 1) var78))) (<= 0 var78))) (and (<= 0 (+ 8 (* (- 1) var32))) (<= 0 var32))) (and (<= 0 (+ 8 (* (- 1) var16))) (<= 0 var16))) (and (<= 0 (+ 8 (* (- 1) var15))) (<= 0 var15))) (and (<= 0 (+ 8 (* (- 1) var40))) (<= 0 var40))) (and (<= 0 (+ 8 (* (- 1) var39))) (<= 0 var39))) (and (<= 0 (+ 8 (* (- 1) var7))) (<= 0 var7))) (and (<= 0 (+ 8 (* (- 1) var69))) (<= 0 var69))) (and (<= 0 (+ 8 (* (- 1) var75))) (<= 0 var75))) (and (<= 0 (+ 8 (* (- 1) var38))) (<= 0 var38))) (and (<= 0 (+ 8 (* (- 1) var31))) (<= 0 var31))) (and (<= 0 (+ 8 (* (- 1) var24))) (<= 0 var24))) (and (<= 0 (+ 8 (* (- 1) var48))) (<= 0 var48))) (and (<= 0 (+ 8 (* (- 1) var79))) (<= 0 var79))) (and (<= 0 (+ 8 (* (- 1) var14))) (<= 0 var14))) (and (<= 0 (+ 8 (* (- 1) var13))) (<= 0 var13))) (and (<= 0 (+ 8 (* (- 1) var23))) (<= 0 var23))) (and (<= 0 (+ 8 (* (- 1) var12))) (<= 0 var12))) (and (<= 0 (+ 8 (* (- 1) var55))) (<= 0 var55))) (and (<= 0 (+ 8 (* (- 1) var22))) (<= 0 var22))) (and (<= 0 (+ 8 (* (- 1) var37))) (<= 0 var37))) (and (<= 0 (+ 8 (* (- 1) var47))) (<= 0 var47))) (and (<= 0 (+ 8 (* (- 1) var63))) (<= 0 var63))) (and (<= 0 (+ 8 (* (- 1) var6))) (<= 0 var6))) (and (<= 0 (+ 8 (* (- 1) var11))) (<= 0 var11))) (and (<= 0 (+ 8 (* (- 1) var54))) (<= 0 var54))) (and (<= 0 (+ 8 (* (- 1) var36))) (<= 0 var36))) (and (<= 0 (+ 8 (* (- 1) var53))) (<= 0 var53))) (and (<= 0 (+ 8 (* (- 1) var21))) (<= 0 var21))) (and (<= 0 (+ 8 (* (- 1) var35))) (<= 0 var35))) (and (<= 0 (+ 8 (* (- 1) var30))) (<= 0 var30))) (and (<= 0 (+ 8 (* (- 1) var52))) (<= 0 var52))) (and (<= 0 (+ 8 (* (- 1) var74))) (<= 0 var74))) (and (<= 0 (+ 8 (* (- 1) var62))) (<= 0 var62))) (and (<= 0 (+ 8 (* (- 1) var29))) (<= 0 var29))) (and (<= 0 (+ 8 (* (- 1) var5))) (<= 0 var5))) (and (<= 0 (+ 8 (* (- 1) var61))) (<= 0 var61))) (and (<= 0 (+ 8 (* (- 1) var10))) (<= 0 var10))) (and (<= 0 (+ 8 (* (- 1) var73))) (<= 0 var73))) (and (<= 0 (+ 8 (* (- 1) var72))) (<= 0 var72))) (and (<= 0 (+ 8 (* (- 1) var70))) (<= 0 var70))) (and (<= 0 (+ 8 (* (- 1) var68))) (<= 0 var68))) (and (<= 0 (+ 8 (* (- 1) var28))) (<= 0 var28))) (and (<= 0 (+ 8 (* (- 1) var34))) (<= 0 var34))) (and (<= 0 (+ 8 (* (- 1) var20))) (<= 0 var20))) (and (<= 0 (+ 8 (* (- 1) var27))) (<= 0 var27))) (and (<= 0 (+ 8 (* (- 1) var3))) (<= 0 var3))) (and (<= 0 (+ 8 (* (- 1) var51))) (<= 0 var51))) (and (<= 0 (+ 8 (* (- 1) var60))) (<= 0 var60))) (and (<= 0 (+ 8 (* (- 1) var59))) (<= 0 var59))) (and (<= 0 (+ 8 (* (- 1) var46))) (<= 0 var46))) (and (<= 0 (+ 8 (* (- 1) var33))) (<= 0 var33))) (and (<= 0 (+ 8 (* (- 1) var50))) (<= 0 var50))) (and (<= 0 (+ 8 (* (- 1) var58))) (<= 0 var58))) (and (<= 0 (+ 8 (* (- 1) var66))) (<= 0 var66))) (and (<= 0 (+ 8 (* (- 1) var9))) (<= 0 var9))) (and (<= 0 (+ 8 (* (- 1) var2))) (<= 0 var2))) (and (<= 0 (+ 8 (* (- 1) var45))) (<= 0 var45))) (and (<= 0 (+ 8 (* (- 1) var1))) (<= 0 var1))) (and (<= 0 (+ 8 (* (- 1) var0))) (<= 0 var0))) (and (<= 0 (+ 8 (* (- 1) var77))) (<= 0 var77))) (and (<= 0 (+ 8 (* (- 1) var18))) (<= 0 var18))) (and (<= 0 (+ 8 (* (- 1) var49))) (<= 0 var49))) (and (<= 0 (+ 8 (* (- 1) var17))) (<= 0 var17))) (and (<= 0 (+ 8 (* (- 1) var44))) (<= 0 var44))) (and (<= 0 (+ 8 (* (- 1) var25))) (<= 0 var25))) (and (<= 0 (+ 8 (* (- 1) var65))) (<= 0 var65))) (and (<= 0 (+ 8 (* (- 1) var43))) (<= 0 var43))) (and (<= 0 (+ 8 (* (- 1) var57))) (<= 0 var57))) (and (<= 0 (+ 8 (* (- 1) var42))) (<= 0 var42))) (and (<= 0 (+ 8 (* (- 1) var64))) (<= 0 var64))) (and (<= 0 (+ 8 (* (- 1) var80))) (<= 0 var80))) (and (<= 0 (+ 8 (* (- 1) var56))) (<= 0 var56))) (and (<= 0 (+ 8 (* (- 1) var76))) (<= 0 var76))) (and (<= 0 (+ 8 (* (- 1) var67))) (<= 0 var67))) (and (<= 0 (+ 8 (* (- 1) var4))) (<= 0 var4))) (and (<= 0 (+ 8 (* (- 1) var19))) (<= 0 var19))) (and (<= 0 (+ 8 (* (- 1) var26))) (<= 0 var26))) (and (<= 0 (+ 8 (* (- 1) var71))) (<= 0 var71))) (and (<= 0 (+ 8 (* (- 1) var41))) (<= 0 var41))))) (inv_main807 var84 var83 var82 var41 var71 var26 var19 var4 var67 var76 var56 var80 var64 var42 var57 var43 var65 var25 var44 var17 var49 var18 var77 var0 var1 var45 var2 var9 var66 var58 var50 var33 var46 var59 var60 var51 var3 var27 var20 var34 var28 var68 var70 var72 var73 var10 var61 var5 var29 var62 var74 var52 var30 var35 var21 var53 var36 var54 var11 var6 var63 var47 var37 var22 var55 var12 var23 var13 var14 var79 var48 var24 var31 var38 var75 var69 var7 var39 var40 var15 var16 var32 var78 var8 1))))
(assert (forall ((var0 Int) (var1 Int) (var2 Int) (var3 Int) (var4 Int) (var5 Int) (var6 Int) (var7 Int) (var8 Int) (var9 Int) (var10 Int) (var11 Int) (var12 Int) (var13 Int) (var14 Int) (var15 Int) (var16 Int) (var17 Int) (var18 Int) (var19 Int) (var20 Int) (var21 Int) (var22 Int) (var23 Int) (var24 Int) (var25 Int) (var26 Int) (var27 Int) (var28 Int) (var29 Int) (var30 Int) (var31 Int) (var32 Int) (var33 Int) (var34 Int) (var35 Int) (var36 Int) (var37 Int) (var38 Int) (var39 Int) (var40 Int) (var41 Int) (var42 Int) (var43 Int) (var44 Int) (var45 Int) (var46 Int) (var47 Int) (var48 Int) (var49 Int) (var50 Int) (var51 Int) (var52 Int) (var53 Int) (var54 Int) (var55 Int) (var56 Int) (var57 Int) (var58 Int) (var59 Int) (var60 Int) (var61 Int) (var62 Int) (var63 Int) (var64 Int) (var65 Int) (var66 Int) (var67 Int) (var68 Int) (var69 Int) (var70 Int) (var71 Int) (var72 Int) (var73 Int) (var74 Int) (var75 Int) (var76 Int) (var77 Int) (var78 Int) (var79 Int) (var80 Int) (var81 Int) (var82 Int) (var83 Int) (var84 Int)) (not (inv_main807 var84 var83 var82 var81 var80 var79 var78 var77 var76 var75 var74 var73 var72 var71 var70 var69 var68 var67 var66 var65 var64 var63 var62 var61 var60 var59 var58 var57 var56 var55 var54 var53 var52 var51 var50 var49 var48 var47 var46 var45 var44 var43 var42 var41 var40 var39 var38 var37 var36 var35 var34 var33 var32 var31 var30 var29 var28 var27 var26 var25 var24 var23 var22 var21 var20 var19 var18 var17 var16 var15 var14 var13 var12 var11 var10 var9 var8 var7 var6 var5 var4 var3 var2 var1 var0))))
(check-sat)
